formal/noc_router/model/design_smt2.smt2
; SMT-LIBv2 description generated by Yosys 0.55+112 (git sha1 bf9aaac0f, clang++ 18.1.3 -fPIC -O3)
; yosys-smt2-module noc_router
(declare-sort |noc_router_s| 0)
(declare-fun |noc_router_is| (|noc_router_s|) Bool)
(declare-fun |noc_router#0| (|noc_router_s|) (_ BitVec 5)) ; \valid_in
; yosys-smt2-output valid_out 5
; yosys-smt2-wire valid_out 5
(define-fun |noc_router_n valid_out| ((state |noc_router_s|)) (_ BitVec 5) (|noc_router#0| state))
; yosys-smt2-input valid_in 5
; yosys-smt2-wire valid_in 5
; yosys-smt2-witness {"offset": 0, "path": ["\\valid_in"], "smtname": "valid_in", "smtoffset": 0, "type": "input", "width": 5}
(define-fun |noc_router_n valid_in| ((state |noc_router_s|)) (_ BitVec 5) (|noc_router#0| state))
(declare-fun |noc_router#1| (|noc_router_s|) Bool) ; \rst_n
; yosys-smt2-input rst_n 1
; yosys-smt2-wire rst_n 1
; yosys-smt2-witness {"offset": 0, "path": ["\\rst_n"], "smtname": "rst_n", "smtoffset": 0, "type": "input", "width": 1}
(define-fun |noc_router_n rst_n| ((state |noc_router_s|)) Bool (|noc_router#1| state))
(declare-fun |noc_router#2| (|noc_router_s|) (_ BitVec 5)) ; \ready_in
; yosys-smt2-output ready_out 5
; yosys-smt2-wire ready_out 5
(define-fun |noc_router_n ready_out| ((state |noc_router_s|)) (_ BitVec 5) (|noc_router#2| state))
; yosys-smt2-input ready_in 5
; yosys-smt2-wire ready_in 5
; yosys-smt2-witness {"offset": 0, "path": ["\\ready_in"], "smtname": "ready_in", "smtoffset": 0, "type": "input", "width": 5}
(define-fun |noc_router_n ready_in| ((state |noc_router_s|)) (_ BitVec 5) (|noc_router#2| state))
(declare-fun |noc_router#3| (|noc_router_s|) (_ BitVec 320)) ; \flit_in
; yosys-smt2-output flit_out 320
; yosys-smt2-wire flit_out 320
(define-fun |noc_router_n flit_out| ((state |noc_router_s|)) (_ BitVec 320) (|noc_router#3| state))
; yosys-smt2-input flit_in 320
; yosys-smt2-wire flit_in 320
; yosys-smt2-witness {"offset": 0, "path": ["\\flit_in"], "smtname": "flit_in", "smtoffset": 0, "type": "input", "width": 320}
(define-fun |noc_router_n flit_in| ((state |noc_router_s|)) (_ BitVec 320) (|noc_router#3| state))
(declare-fun |noc_router#4| (|noc_router_s|) Bool) ; \clk
; yosys-smt2-input clk 1
; yosys-smt2-wire clk 1
; yosys-smt2-witness {"offset": 0, "path": ["\\clk"], "smtname": "clk", "smtoffset": 0, "type": "input", "width": 1}
(define-fun |noc_router_n clk| ((state |noc_router_s|)) Bool (|noc_router#4| state))
(define-fun |noc_router_a| ((state |noc_router_s|)) Bool true)
(define-fun |noc_router_u| ((state |noc_router_s|)) Bool true)
(define-fun |noc_router_i| ((state |noc_router_s|)) Bool true)
(define-fun |noc_router_h| ((state |noc_router_s|)) Bool true)
(define-fun |noc_router_t| ((state |noc_router_s|) (next_state |noc_router_s|)) Bool true) ; end of module noc_router
; yosys-smt2-topmod noc_router
; end of yosys output
